proyfinal/src/viki/013/experimentInOfficeAgust.take6.output/8695b037-8305-4db3-a40a-8d63a4c4583f.als.out
Reading from standard input... Use '--help' for help.
============================[ Problem Statistics ]=============================
|                                                                             |
|  Number of variables:         87638                                         |
|  Number of clauses:          161767                                         |
|  Parse time:                   0.04 s                                       |
|                                                                             |
============================[ Search Statistics ]==============================
| Conflicts |          ORIGINAL         |          LEARNT          | Progress |
|           |    Vars  Clauses Literals |    Limit  Clauses Lit/Cl |          |
===============================================================================
|       100 |   63840   110379   275951 |    40472      100     29 | 27.155 % |
|       250 |   63840   110379   275951 |    44519      250     24 | 27.155 % |
|       475 |   63840   110379   275951 |    48971      475     83 | 27.155 % |
|       812 |   63840   110379   275951 |    53868      812     77 | 27.155 % |
|      1318 |   63840   110379   275951 |    59255     1318     79 | 27.155 % |
|      2077 |   63839   110335   275861 |    65181     2073     73 | 27.156 % |
|      3216 |   63839   110335   275861 |    71699     3212     71 | 27.156 % |
|      4924 |   63812   110190   275544 |    78869     3880     91 | 27.187 % |
|      7486 |   63786   110047   275232 |    86755     5455     85 | 27.217 % |
|     11330 |   63642   109764   274578 |    95431     9291     95 | 27.381 % |
===============================================================================
restarts              : 63
conflicts             : 16158          (5811 /sec)
decisions             : 53700          (0.00 % random) (19313 /sec)
propagations          : 26215759       (9428203 /sec)
conflict literals     : 1323979        (54.99 % deleted)
Memory used           : 44.43 MB
CPU time              : 2.78057 s

INDETERMINATE
